n=20;
demand=2;
horizon=20;
est=[15,17,4,17,0,10,19,5,19,16,10,12,1,0,6,17,8,1,15,7];
processing_time=[3,2,6,2,3,1,1,10,1,3,4,8,11,14,1,3,11,10,5,3];
lct=[19,20,19,19,9,17,20,18,20,19,18,20,15,20,8,20,20,12,20,11];
